letting n =  10
letting blocks =  [[1, 2], [1, 6], [1, 10], [2, 2], [2, 3], [2, 6], [2, 7], [3, 2], [3, 3], [4, 1], [4, 4], [4, 8], [4, 9], [5, 3], [5, 7], [5, 10], [6, 3], [6, 4], [6, 5], [6, 8], [7, 4], [7, 6], [7, 7], [7, 8], [7, 10], [8, 9], [8, 10], [9, 3], [9, 6], [9, 7], [10, 1], [10, 2], [10, 3], [10, 6], [10, 8], [10, 10]]
